ilp_joint_2/output/dripping_ilp.lp
Maximize
  0.000258568 Z_69_1_0 + 0.00343075439483909 Z_69_1_1
   + 0.4753612228063416 Z_69_1_2 + 0.00652534283491524 Z_69_1_3
   + 7.400435954820761e-04 Z_46_1_0 + 0.00385387511343493 Z_46_1_1
   + 0.4232026297395935 Z_46_1_2 + 0.00158360140007786 Z_46_1_3
Subject To
 constraint1_691: Z_69_1_0 + Z_69_1_1 + Z_69_1_2 + Z_69_1_3 <= 1
 constraint1_461: Z_46_1_0 + Z_46_1_1 + Z_46_1_2 + Z_46_1_3 <= 1
 constraint2_690: Z_69_1_0 <= 1
 constraint2_691: Z_69_1_1 <= 1
 constraint2_692: Z_69_1_2 <= 1
 constraint2_693: Z_69_1_3 <= 1
 constraint2_460: Z_46_1_0 <= 1
 constraint2_461: Z_46_1_1 <= 1
 constraint2_462: Z_46_1_2 <= 1
 constraint2_463: Z_46_1_3 <= 1
Bounds
Binaries
 Z_69_1_0 Z_69_1_1 Z_69_1_2 Z_69_1_3 Z_46_1_0 Z_46_1_1 Z_46_1_2 Z_46_1_3
End
