ilp_joint_2/output/dripping_ilp.mps
NAME dripping_srl_ilp
* Max problem is converted into Min one
ROWS
 N  OBJ
 L  constraint1_691
 L  constraint1_461
 L  constraint2_690
 L  constraint2_691
 L  constraint2_692
 L  constraint2_693
 L  constraint2_460
 L  constraint2_461
 L  constraint2_462
 L  constraint2_463
COLUMNS
    MARKER    'MARKER'                 'INTORG'
    Z_69_1_0  OBJ       -2.5856802119855749e-04
    Z_69_1_0  constraint1_691  1
    Z_69_1_0  constraint2_690  1
    Z_69_1_1  OBJ       -3.4307543948390862e-03
    Z_69_1_1  constraint1_691  1
    Z_69_1_1  constraint2_691  1
    Z_69_1_2  OBJ       -4.7536122280634163e-01
    Z_69_1_2  constraint1_691  1
    Z_69_1_2  constraint2_692  1
    Z_69_1_3  OBJ       -6.5253428349152402e-03
    Z_69_1_3  constraint1_691  1
    Z_69_1_3  constraint2_693  1
    Z_46_1_0  OBJ       -7.4004359548207610e-04
    Z_46_1_0  constraint1_461  1
    Z_46_1_0  constraint2_460  1
    Z_46_1_1  OBJ       -3.8538751134349347e-03
    Z_46_1_1  constraint1_461  1
    Z_46_1_1  constraint2_461  1
    Z_46_1_2  OBJ       -4.2320262973959355e-01
    Z_46_1_2  constraint1_461  1
    Z_46_1_2  constraint2_462  1
    Z_46_1_3  OBJ       -1.5836014000778632e-03
    Z_46_1_3  constraint1_461  1
    Z_46_1_3  constraint2_463  1
    MARKER    'MARKER'                 'INTEND'
RHS
    RHS1      constraint1_691  1
    RHS1      constraint1_461  1
    RHS1      constraint2_690  1
    RHS1      constraint2_691  1
    RHS1      constraint2_692  1
    RHS1      constraint2_693  1
    RHS1      constraint2_460  1
    RHS1      constraint2_461  1
    RHS1      constraint2_462  1
    RHS1      constraint2_463  1
BOUNDS
 UP BND1      Z_69_1_0  1
 UP BND1      Z_69_1_1  1
 UP BND1      Z_69_1_2  1
 UP BND1      Z_69_1_3  1
 UP BND1      Z_46_1_0  1
 UP BND1      Z_46_1_1  1
 UP BND1      Z_46_1_2  1
 UP BND1      Z_46_1_3  1
ENDATA
