ilp_joint_2/output/dripping_ilp.sol
# Solution for model dripping_srl_ilp
# Objective value = 8.9856385254593518e-01
Z_69_1_0 0
Z_69_1_1 0
Z_69_1_2 1
Z_69_1_3 0
Z_46_1_0 0
Z_46_1_1 0
Z_46_1_2 1
Z_46_1_3 0
